3 3 2
30 1 6 0 28 1 5 2 30 0 7 1 6 0 6 1 0 0 31 2 12 1 6 0 39 2 13 1 22 0 31 2 3 0 0 2 30 0 28 2 14 0 4 1 41 0 20 2 1 1 29 0 17 1 34 2 43 0 34 1 19 
30 0 28 2 5 0 25 2 24 1 31 0 35 2 38 0 24 1 13 2 24 1 21 2 8 0 8 1 18 2 10 1 32 0 1 1 9 0 19 2 37 1 3 0 16 1 16 2 24 0 13 1 34 2 46 0 21 2 47 0 44 
30 1 36 2 35 1 13 2 10 1 23 0 2 2 9 0 46 1 17 2 24 0 16 1 3 0 22 1 49 2 13 1 40 0 5 2 49 0 22 1 26 2 34 0 39 1 2 2 14 0 11 1 15 0 14 1 39 0 16 2 41 

-------------
